Name: Ing0304-3
Courses: 76
Rooms: 18
Days: 5
Periods_per_day: 5
Curricula: 75
Min_Max_Daily_Lectures: 2 4
UnavailabilityConstraints: 405
RoomConstraints: 170

COURSES:
c0012 t000 3 3 36 0
c0013 t001 3 3 18 0
c0035 t002 3 3 17 0
c0036 t003 3 3 17 0
c0045 t004 3 3 90 0
c0052 t005 3 3 170 0
c0053 t006 3 3 85 0
c0055 t007 3 3 85 0
c0057 t008 3 3 90 0
c0060 t009 3 3 140 0
c0094 t010 3 3 100 0
c0098 t011 3 3 85 0
c0104 t012 3 3 85 0
c0107 t013 3 3 100 0
c0112 t014 3 3 100 0
c0114 t015 3 3 85 0
c0116 t005 3 2 120 1
c0117 t016 3 3 120 0
c0130 t017 3 2 135 0
c0148 t018 3 3 120 0
c0149 t019 3 3 120 0
c0150 t020 3 2 120 1
c0177 t010 3 3 133 0
c0179 t021 3 3 140 0
c0181 t022 3 3 140 0
c0198 t023 3 3 90 0
c0210 t024 3 3 100 0
c0214 t025 3 3 143 0
c0218 t026 3 3 138 0
c0223 t001 3 3 138 0
c0224 t020 3 3 156 0
c0226 t027 3 2 110 0
c0227 t028 3 3 72 0
c0441 t029 5 4 30 1
c0249 t030 3 3 42 0
c0254 t031 3 3 145 0
c0271 t032 3 3 145 0
c0343 t033 3 3 47 0
c0344 t034 3 2 75 1
c0378 t035 3 3 132 0
c0409 t036 3 3 3 0
c0411 t037 3 3 126 0
c0457 t038 3 3 7 0
c0497 t007 3 3 5 0
c0503 t039 5 4 57 1
c0506 t040 3 2 29 0
c0527 t041 3 3 11 0
c0532 t023 3 3 46 0
c0534 t042 3 3 26 0
c0465 t043 5 4 67 0
c0737 t044 3 2 15 1
c0771 t045 4 2 33 1
c0883 t046 7 1 40 1
c0884 t047 7 1 40 1
c0901 t048 3 3 135 0
c0917 t049 3 3 29 0
c0918 t050 3 3 27 0
c0933 t051 3 2 4 0
c0938 t042 3 3 25 0
c0953 t052 7 1 50 1
c0969 t053 7 1 40 1
c0972 t054 7 1 15 1
c0978 t055 7 1 70 1
c0995 t056 3 3 2 0
c1007 t057 3 3 140 0
c0923 t048 5 4 40 0
c0798 t058 5 4 21 0
c0741 t059 5 4 105 0
c0196 t060 5 4 60 1
c0014 t061 5 4 51 1
c0233 t062 5 4 151 1
c0828 t063 5 4 19 0
c0456 t064 5 4 76 0
c0535 t065 5 4 75 0
c0510 t066 5 4 55 0
c0909 t067 3 3 45 0

ROOMS:
r25 40 1
r36 42 1
r37 42 1
r38 48 1
r31 50 2
r27 80 2
r51 100 0
rB 216 1
rD 216 1
rE 216 1
rF 216 1
rH 216 0
rA 312 3
rL 336 3
r50 50 0
r52 80 0
rDS1 90 1
rDS2 90 1

CURRICULA:
q000 3 c0177 c0214 c0226 
q001 3 c0177 c0214 c0771 
q002 4 c0224 c0012 c0013 c0014 
q003 4 c0224 c0012 c0223 c0218 
q004 2 c0035 c0036 
q005 2 c0441 c0014 
q006 3 c0798 c0036 c0035 
q007 3 c0411 c0441 c0014 
q008 2 c0411 c0828 
q009 4 c0411 c0828 c0441 c0014 
q010 1 c0527 
q011 2 c0233 c0828 
q013 3 c0130 c0901 c0972 
q014 3 c0130 c0901 c0953 
q015 3 c0130 c0901 c0978 
q016 4 c0148 c0149 c0150 c0883 
q017 4 c0148 c0149 c0150 c0969 
q018 4 c0148 c0149 c0150 c0884 
q019 3 c0210 c0214 c0226 
q020 3 c0210 c0214 c0771 
q021 3 c0218 c0223 c0224 
q022 2 c0227 c0233 
q023 2 c0227 c0249 
q024 3 c0409 c0411 c0249 
q025 3 c0409 c0411 c0233 
q026 3 c0409 c0411 c0227 
q027 3 c0411 c0933 c0249 
q028 3 c0411 c0933 c0233 
q029 3 c0411 c0933 c0441 
q030 3 c0411 c0933 c0227 
q031 1 c0441 
q032 3 c0045 c0057 c1007 
q033 4 c0052 c0053 c0055 c0060 
q034 1 c0741 
q035 2 c0737 c0741 
q036 3 c0497 c0737 c0741 
q037 3 c0506 c0737 c0741 
q038 5 c0917 c0344 c0995 c0457 c0918 
q039 3 c0917 c0344 c0995 
q040 5 c0917 c0344 c0457 c0343 c0503 
q041 3 c0177 c0179 c0181 
q042 3 c0254 c0271 c0198 
q043 1 c0196 
q044 3 c1007 c0179 c0181 
q045 4 c0254 c0060 c0052 c0271 
q047 3 c0456 c0503 c0741 
q048 3 c0456 c0457 c0196 
q049 1 c0465 
q050 3 c0094 c0107 c0112 
q051 3 c0098 c0104 c0114 
q052 2 c0116 c0117 
q053 4 c0052 c0510 c0117 c0116 
q054 5 c0052 c0510 c0527 c0117 c0116 
q055 5 c0052 c0510 c0535 c0117 c0116 
q056 1 c0503 
q057 1 c0532 
q058 1 c0534 
q059 2 c0411 c0233 
q061 3 c0441 c0411 c0233 
q062 4 c0828 c0411 c0233 c0014 
q063 4 c0506 c0343 c0344 c0503 
q064 3 c0344 c0917 c0918 
q065 2 c0343 c0344 
q066 3 c0378 c0798 c0465 
q067 3 c0378 c0798 c0456 
q068 4 c0378 c0923 c0535 c0465 
q069 4 c0378 c0923 c0535 c0456 
q070 2 c0378 c0465 
q071 2 c0378 c0456 
q072 4 c0378 c0532 c0909 c0465 
q073 4 c0378 c0532 c0909 c0456 
q074 2 c0741 c0503 
q075 1 c0510 
q076 2 c0532 c0909 
q077 3 c0534 c0938 c0535 

UNAVAILABILITY_CONSTRAINTS:
c0013 0 0 
c0013 0 2 
c0013 1 2 
c0013 2 0 
c0013 2 2 
c0013 3 2 
c0013 4 0 
c0013 4 2 
c0035 0 0 
c0035 0 1 
c0035 0 2 
c0035 4 0 
c0035 4 1 
c0035 4 2 
c0035 4 3 
c0035 4 4 
c0052 0 0 
c0052 0 1 
c0052 0 2 
c0052 1 0 
c0052 1 1 
c0052 1 2 
c0052 1 3 
c0053 1 2 
c0053 1 3 
c0053 1 4 
c0053 3 0 
c0053 3 1 
c0053 3 2 
c0053 3 3 
c0053 3 4 
c0055 0 0 
c0055 1 0 
c0055 1 4 
c0055 2 0 
c0055 3 0 
c0055 3 4 
c0055 4 0 
c0055 4 4 
c0060 0 0 
c0060 1 0 
c0060 2 0 
c0060 3 0 
c0060 4 0 
c0060 4 1 
c0060 4 2 
c0060 4 3 
c0104 0 2 
c0104 1 2 
c0104 2 2 
c0104 3 2 
c0104 4 2 
c0112 3 0 
c0112 3 1 
c0112 3 2 
c0112 3 3 
c0112 3 4 
c0112 4 0 
c0112 4 1 
c0112 4 2 
c0112 4 3 
c0112 4 4 
c0114 0 0 
c0114 0 2 
c0114 1 2 
c0114 2 0 
c0114 2 2 
c0114 3 0 
c0114 3 2 
c0114 4 2 
c0116 0 0 
c0116 0 1 
c0116 0 2 
c0116 1 0 
c0116 1 1 
c0116 1 2 
c0117 0 2 
c0117 1 2 
c0117 2 2 
c0117 3 2 
c0117 4 2 
c0117 4 4 
c0130 4 4 
c0148 1 4 
c0149 0 2 
c0149 1 2 
c0149 1 3 
c0149 1 4 
c0149 2 2 
c0149 2 3 
c0149 3 2 
c0149 3 3 
c0149 4 2 
c0150 1 4 
c0150 4 0 
c0150 4 1 
c0150 4 2 
c0150 4 3 
c0150 4 4 
c0177 0 2 
c0177 0 3 
c0177 0 4 
c0177 1 2 
c0177 1 3 
c0177 1 4 
c0177 2 2 
c0177 2 3 
c0177 2 4 
c0177 3 2 
c0177 3 3 
c0177 3 4 
c0177 4 2 
c0177 4 3 
c0177 4 4 
c0179 0 2 
c0179 0 3 
c0179 0 4 
c0179 1 2 
c0179 1 3 
c0179 1 4 
c0179 2 2 
c0179 2 3 
c0179 2 4 
c0179 3 2 
c0179 3 3 
c0179 3 4 
c0179 4 2 
c0179 4 3 
c0179 4 4 
c0198 1 3 
c0198 1 4 
c0198 2 3 
c0198 2 4 
c0198 4 2 
c0198 4 3 
c0198 4 4 
c0210 0 2 
c0210 0 3 
c0210 0 4 
c0210 1 2 
c0210 1 3 
c0210 1 4 
c0210 2 2 
c0210 2 3 
c0210 2 4 
c0210 3 2 
c0210 3 3 
c0210 3 4 
c0210 4 2 
c0210 4 3 
c0210 4 4 
c0214 0 0 
c0214 0 2 
c0214 0 3 
c0214 0 4 
c0214 1 2 
c0214 1 3 
c0214 1 4 
c0214 2 2 
c0214 2 3 
c0214 2 4 
c0214 3 2 
c0214 3 3 
c0214 3 4 
c0214 4 2 
c0214 4 3 
c0214 4 4 
c0223 0 0 
c0223 0 2 
c0223 1 2 
c0223 2 0 
c0223 2 2 
c0223 3 2 
c0223 4 0 
c0223 4 2 
c0224 1 4 
c0224 2 4 
c0224 3 4 
c0224 4 0 
c0224 4 1 
c0224 4 2 
c0224 4 3 
c0224 4 4 
c0226 0 0 
c0226 2 3 
c0226 2 4 
c0226 4 0 
c0226 4 1 
c0226 4 2 
c0226 4 3 
c0226 4 4 
c0227 0 0 
c0227 0 1 
c0227 0 2 
c0227 4 0 
c0227 4 1 
c0227 4 2 
c0227 4 3 
c0227 4 4 
c0441 0 4 
c0441 1 4 
c0441 2 2 
c0441 2 3 
c0441 2 4 
c0441 3 4 
c0441 4 2 
c0441 4 4 
c0254 0 0 
c0254 1 0 
c0254 1 1 
c0254 4 0 
c0254 4 1 
c0254 4 2 
c0254 4 3 
c0254 4 4 
c0343 0 0 
c0343 0 1 
c0343 0 2 
c0343 0 3 
c0343 0 4 
c0343 1 0 
c0343 1 2 
c0343 1 3 
c0343 1 4 
c0343 2 0 
c0344 0 0 
c0344 0 1 
c0344 0 2 
c0344 0 3 
c0344 0 4 
c0344 1 0 
c0344 1 1 
c0344 1 2 
c0344 1 3 
c0344 1 4 
c0344 2 0 
c0344 2 1 
c0344 2 2 
c0344 2 3 
c0344 2 4 
c0344 3 0 
c0344 4 4 
c0378 1 0 
c0378 2 0 
c0378 2 1 
c0378 2 2 
c0378 2 3 
c0378 2 4 
c0378 4 4 
c0411 0 0 
c0411 0 1 
c0411 0 2 
c0411 0 3 
c0411 0 4 
c0411 1 0 
c0411 1 1 
c0411 1 2 
c0457 3 2 
c0457 3 3 
c0457 3 4 
c0457 4 0 
c0457 4 1 
c0457 4 2 
c0457 4 3 
c0457 4 4 
c0503 0 0 
c0503 0 1 
c0503 0 2 
c0503 0 3 
c0503 0 4 
c0503 1 0 
c0503 1 1 
c0503 1 2 
c0506 0 0 
c0506 0 1 
c0506 0 2 
c0506 0 3 
c0506 0 4 
c0506 1 0 
c0506 1 1 
c0506 1 2 
c0506 1 3 
c0506 1 4 
c0506 4 4 
c0527 0 0 
c0527 0 1 
c0527 0 2 
c0527 0 3 
c0527 0 4 
c0532 1 3 
c0532 1 4 
c0532 2 3 
c0532 2 4 
c0532 4 0 
c0532 4 2 
c0532 4 3 
c0532 4 4 
c0534 0 0 
c0534 0 1 
c0534 0 2 
c0534 0 3 
c0534 0 4 
c0534 4 0 
c0534 4 1 
c0534 4 2 
c0534 4 3 
c0534 4 4 
c0737 0 0 
c0737 0 1 
c0737 0 2 
c0737 0 3 
c0737 0 4 
c0737 4 0 
c0737 4 1 
c0737 4 2 
c0737 4 3 
c0737 4 4 
c0901 4 4 
c0917 0 0 
c0917 0 1 
c0917 0 2 
c0917 0 3 
c0917 0 4 
c0917 1 0 
c0917 1 1 
c0917 1 2 
c0917 1 3 
c0917 4 2 
c0917 4 3 
c0917 4 4 
c0918 0 0 
c0918 0 1 
c0918 0 2 
c0918 0 3 
c0918 0 4 
c0918 1 0 
c0918 1 1 
c0918 1 2 
c0918 1 3 
c0918 4 2 
c0918 4 3 
c0918 4 4 
c0938 0 0 
c0938 0 1 
c0938 0 2 
c0938 0 3 
c0938 0 4 
c0938 4 0 
c0938 4 1 
c0938 4 2 
c0938 4 3 
c0938 4 4 
c0995 0 2 
c0995 0 3 
c0995 0 4 
c0995 2 0 
c0995 2 1 
c0995 2 2 
c0923 0 2 
c0923 1 2 
c0923 2 2 
c0923 3 2 
c0923 4 2 
c0798 0 2 
c0798 1 2 
c0798 1 3 
c0798 2 2 
c0798 2 3 
c0798 3 2 
c0798 3 3 
c0798 4 2 
c0741 1 2 
c0741 1 3 
c0741 1 4 
c0741 3 2 
c0741 3 3 
c0741 3 4 
c0741 4 3 
c0741 4 4 
c0196 4 0 
c0196 4 1 
c0196 4 2 
c0196 4 3 
c0196 4 4 
c0014 4 0 
c0014 4 1 
c0014 4 2 
c0014 4 3 
c0014 4 4 
c0456 0 0 
c0456 0 1 
c0456 0 2 
c0456 0 3 
c0456 1 0 
c0456 2 0 
c0456 3 0 
c0456 4 0 
c0909 0 0 
c0909 0 1 
c0909 0 2 
c0909 0 3 
c0909 0 4 
c0909 1 0 
c0909 1 1 
c0909 1 2 

ROOM_CONSTRAINTS:
c0012 rB
c0012 r52
c0013 rF
c0013 rDS2
c0035 r51
c0035 rDS2
c0036 r31
c0045 r27
c0045 r52
c0052 r27
c0052 rH
c0052 r50
c0053 r37
c0053 r31
c0053 rA
c0055 r31
c0055 r50
c0057 r38
c0057 rF
c0057 rH
c0057 r52
c0057 rDS1
c0060 r51
c0094 r25
c0094 r27
c0094 rF
c0098 rH
c0098 rA
c0104 rE
c0104 r52
c0107 r31
c0107 rB
c0107 rF
c0107 rL
c0112 r36
c0114 r36
c0114 r37
c0114 r50
c0116 r36
c0116 rH
c0116 rDS2
c0117 r36
c0117 r37
c0117 r38
c0117 rE
c0130 r38
c0130 r31
c0130 rL
c0130 rDS1
c0148 r36
c0149 r36
c0149 r51
c0149 rE
c0149 rA
c0150 r27
c0150 rE
c0150 rDS2
c0177 r36
c0177 r31
c0177 rA
c0177 rL
c0177 r50
c0179 r37
c0179 rB
c0179 rL
c0179 r50
c0179 r52
c0198 r31
c0210 r27
c0210 r51
c0210 rB
c0210 rL
c0210 r50
c0214 rH
c0218 r51
c0218 r50
c0223 r36
c0223 rH
c0223 r52
c0223 rDS1
c0224 r50
c0224 rDS1
c0226 rA
c0226 rL
c0441 rA
c0441 r52
c0249 r36
c0249 r38
c0249 rH
c0271 r25
c0271 rL
c0343 r37
c0343 r31
c0343 rA
c0344 r25
c0344 rF
c0344 r50
c0378 r51
c0378 rE
c0378 rDS2
c0409 rA
c0409 r52
c0411 r37
c0411 r38
c0411 r51
c0457 rDS1
c0497 rDS1
c0503 r25
c0503 rE
c0503 r52
c0506 r38
c0506 rDS1
c0527 rF
c0527 rH
c0532 rA
c0534 rD
c0534 r50
c0737 rB
c0737 rF
c0883 rB
c0883 rL
c0883 r50
c0883 r52
c0901 rD
c0901 rE
c0901 rH
c0901 rDS2
c0917 r51
c0917 rE
c0917 r50
c0917 rDS2
c0918 r38
c0918 rB
c0933 r25
c0933 r37
c0933 rB
c0933 rF
c0933 r50
c0938 r36
c0938 r51
c0969 r27
c0972 r36
c0972 r37
c0972 r27
c0978 r38
c0978 r27
c0978 r51
c0978 rDS1
c0995 rDS2
c1007 r51
c1007 rDS1
c0741 r25
c0741 r37
c0741 r31
c0741 rE
c0196 r27
c0196 rB
c0196 rH
c0196 r50
c0196 rDS2
c0014 rE
c0828 r52
c0828 rDS2
c0456 r38
c0456 r27
c0456 r51
c0456 rH
c0535 r25
c0535 rE
c0535 r52

END.
